NAME dripping_srl_ilp
* Max problem is converted into Min one
ROWS
 N  OBJ
 L  constraint1_5385
 L  constraint1_5380
 L  constraint1_5383
 L  constraint1_5381
 L  constraint1_5386
 L  constraint1_5382
 L  constraint2_5380
 L  constraint2_5381
 L  constraint2_5382
 L  constraint2_5383
COLUMNS
    MARKER    'MARKER'                 'INTORG'
    Z_538_5_0  OBJ       -2.3742776061718856e-02
    Z_538_5_0  constraint1_5385  1
    Z_538_5_0  constraint2_5380  1
    Z_538_5_1  OBJ       -4.3000723956254216e-03
    Z_538_5_1  constraint1_5385  1
    Z_538_5_1  constraint2_5381  1
    Z_538_5_2  OBJ       -2.0600056534306574e-01
    Z_538_5_2  constraint1_5385  1
    Z_538_5_2  constraint2_5382  1
    Z_538_5_3  OBJ       -5.1536926098466719e-03
    Z_538_5_3  constraint1_5385  1
    Z_538_5_3  constraint2_5383  1
    Z_538_5_4  OBJ       -6.6080289358974320e-01
    Z_538_5_4  constraint1_5385  1
    Z_538_0_0  OBJ       -1.7174242745502014e-02
    Z_538_0_0  constraint1_5380  1
    Z_538_0_0  constraint2_5380  1
    Z_538_0_1  OBJ       -6.8917906643100576e-03
    Z_538_0_1  constraint1_5380  1
    Z_538_0_1  constraint2_5381  1
    Z_538_0_2  OBJ       -1.5766840048152680e-01
    Z_538_0_2  constraint1_5380  1
    Z_538_0_2  constraint2_5382  1
    Z_538_0_3  OBJ       -4.5922621145693555e-03
    Z_538_0_3  constraint1_5380  1
    Z_538_0_3  constraint2_5383  1
    Z_538_0_4  OBJ       -7.1367330399409179e-01
    Z_538_0_4  constraint1_5380  1
    Z_538_3_0  OBJ       -9.6486743428676983e-02
    Z_538_3_0  constraint1_5383  1
    Z_538_3_0  constraint2_5380  1
    Z_538_3_1  OBJ       -5.4583769383941036e-02
    Z_538_3_1  constraint1_5383  1
    Z_538_3_1  constraint2_5381  1
    Z_538_3_2  OBJ       -3.6469910552490603e-02
    Z_538_3_2  constraint1_5383  1
    Z_538_3_2  constraint2_5382  1
    Z_538_3_3  OBJ       -5.4468823164069376e-02
    Z_538_3_3  constraint1_5383  1
    Z_538_3_3  constraint2_5383  1
    Z_538_3_4  OBJ       -6.5799075347082214e-01
    Z_538_3_4  constraint1_5383  1
    Z_538_1_0  OBJ       -1.4768648788263476e-02
    Z_538_1_0  constraint1_5381  1
    Z_538_1_0  constraint2_5380  1
    Z_538_1_1  OBJ       -4.1233816756604475e-03
    Z_538_1_1  constraint1_5381  1
    Z_538_1_1  constraint2_5381  1
    Z_538_1_2  OBJ       -3.0876208606704936e-01
    Z_538_1_2  constraint1_5381  1
    Z_538_1_2  constraint2_5382  1
    Z_538_1_3  OBJ       -2.7287779490949106e-02
    Z_538_1_3  constraint1_5381  1
    Z_538_1_3  constraint2_5383  1
    Z_538_1_4  OBJ       -5.4505810397807775e-01
    Z_538_1_4  constraint1_5381  1
    Z_538_6_0  OBJ       -1.4768648788263476e-02
    Z_538_6_0  constraint1_5386  1
    Z_538_6_0  constraint2_5380  1
    Z_538_6_1  OBJ       -4.1233816756604475e-03
    Z_538_6_1  constraint1_5386  1
    Z_538_6_1  constraint2_5381  1
    Z_538_6_2  OBJ       -3.0876208606704936e-01
    Z_538_6_2  constraint1_5386  1
    Z_538_6_2  constraint2_5382  1
    Z_538_6_3  OBJ       -2.7287779490949106e-02
    Z_538_6_3  constraint1_5386  1
    Z_538_6_3  constraint2_5383  1
    Z_538_6_4  OBJ       -5.4505810397807775e-01
    Z_538_6_4  constraint1_5386  1
    Z_538_2_0  OBJ       -4.0624517993291190e-04
    Z_538_2_0  constraint1_5382  1
    Z_538_2_0  constraint2_5380  1
    Z_538_2_1  OBJ       -8.2711117762637558e-03
    Z_538_2_1  constraint1_5382  1
    Z_538_2_1  constraint2_5381  1
    Z_538_2_2  OBJ       -7.4496093928945506e-01
    Z_538_2_2  constraint1_5382  1
    Z_538_2_2  constraint2_5382  1
    Z_538_2_3  OBJ       -7.6935437433027151e-04
    Z_538_2_3  constraint1_5382  1
    Z_538_2_3  constraint2_5383  1
    Z_538_2_4  OBJ       -1.4559234938001800e-01
    Z_538_2_4  constraint1_5382  1
    MARKER    'MARKER'                 'INTEND'
RHS
    RHS1      constraint1_5385  1
    RHS1      constraint1_5380  1
    RHS1      constraint1_5383  1
    RHS1      constraint1_5381  1
    RHS1      constraint1_5386  1
    RHS1      constraint1_5382  1
    RHS1      constraint2_5380  1
    RHS1      constraint2_5381  1
    RHS1      constraint2_5382  1
    RHS1      constraint2_5383  1
BOUNDS
 UP BND1      Z_538_5_0  1
 UP BND1      Z_538_5_1  1
 UP BND1      Z_538_5_2  1
 UP BND1      Z_538_5_3  1
 UP BND1      Z_538_5_4  1
 UP BND1      Z_538_0_0  1
 UP BND1      Z_538_0_1  1
 UP BND1      Z_538_0_2  1
 UP BND1      Z_538_0_3  1
 UP BND1      Z_538_0_4  1
 UP BND1      Z_538_3_0  1
 UP BND1      Z_538_3_1  1
 UP BND1      Z_538_3_2  1
 UP BND1      Z_538_3_3  1
 UP BND1      Z_538_3_4  1
 UP BND1      Z_538_1_0  1
 UP BND1      Z_538_1_1  1
 UP BND1      Z_538_1_2  1
 UP BND1      Z_538_1_3  1
 UP BND1      Z_538_1_4  1
 UP BND1      Z_538_6_0  1
 UP BND1      Z_538_6_1  1
 UP BND1      Z_538_6_2  1
 UP BND1      Z_538_6_3  1
 UP BND1      Z_538_6_4  1
 UP BND1      Z_538_2_0  1
 UP BND1      Z_538_2_1  1
 UP BND1      Z_538_2_2  1
 UP BND1      Z_538_2_3  1
 UP BND1      Z_538_2_4  1
ENDATA
